NAME: random-26-14552
TYPE: TSP
COMMENT: size=26 seed=14552
DIMENSION: 54
EDGE_WEIGHT_TYPE: EUC_2D
NODE_COORD_SECTION
+0 464 90
-0 464 90
+1 816 802
-1 740 590
+2 901 521
-2 620 54
+3 60 743
-3 105 580
+4 902 944
-4 67 940
+5 731 817
-5 578 931
+6 609 467
-6 962 251
+7 141 579
-7 382 75
+8 731 954
-8 103 344
+9 126 719
-9 221 740
+10 466 138
-10 84 58
+11 160 361
-11 279 754
+12 792 614
-12 914 159
+13 196 88
-13 220 799
+14 335 78
-14 750 449
+15 436 5
-15 137 874
+16 173 220
-16 120 176
+17 79 785
-17 454 782
+18 816 17
-18 404 902
+19 405 856
-19 193 712
+20 718 760
-20 398 906
+21 186 473
-21 649 276
+22 984 786
-22 505 217
+23 531 421
-23 257 862
+24 820 509
-24 183 20
+25 306 721
-25 979 91
+26 932 870
-26 332 584
PRECEDENCE_SECTION
+0 -0
+1 -1
+2 -2
+3 -3
+4 -4
+5 -5
+6 -6
+7 -7
+8 -8
+9 -9
+10 -10
+11 -11
+12 -12
+13 -13
+14 -14
+15 -15
+16 -16
+17 -17
+18 -18
+19 -19
+20 -20
+21 -21
+22 -22
+23 -23
+24 -24
+25 -25
+26 -26
EOF
